# Solution for model r5_t18_m1_6 Batch Number: 2
# Finished Task: 18 / 18
# Makespan: 575.0, Total Distance: 390.0, Total Time: 2.0458
# R O S F Batch
0 0 5 0.0 0.0 -1
1 1 21 0.0 0.0 -1
2 2 7 0.0 0.0 -1
3 3 11 0.0 0.0 -1
4 4 20 0.0 0.0 -1
5 0 19 168.0 207.0 0
6 0 14 379.0 399.0 1
7 2 8 252.0 277.0 0
8 2 12 309.0 337.0 0
9 1 22 346.0 378.0 0
10 2 16 520.0 547.0 1
11 3 17 364.0 397.0 0
12 2 15 377.0 412.0 0
13 4 -1 375.0 397.0 0
14 0 -1 547.0 575.0 1
15 2 10 452.0 477.0 1
16 2 -1 547.0 573.0 1
17 3 -1 399.0 420.0 1
18 4 13 310.0 346.0 0
19 0 6 334.0 364.0 0
20 4 18 286.0 310.0 0
21 1 9 311.0 332.0 0
22 1 -1 390.0 412.0 0
